db/data/250361414230910444820620101501479932300.z3.out
sat
-------------------
512.677194704
